(set-info :original "../out/aws_byte_cursor_read_and_fill_buffer_harness.c/aws_byte_cursor_read_and_fill_buffer_harness62779.bc.txt")
(set-info :authors "SeaHorn v.10.0.0-rc0")
(declare-rel verifier.error (Bool Bool Bool ))
(declare-rel main@entry ())
(declare-rel main@verifier.error.split ())
(declare-var main@%_40_0 Int )
(declare-var main@%_41_0 Int )
(declare-var main@%_42_0 Bool )
(declare-var main@%_38_0 Bool )
(declare-var main@%_35_0 Int )
(declare-var main@%_36_0 Bool )
(declare-var main@%_29_0 Bool )
(declare-var main@%_30_0 Bool )
(declare-var main@%or.cond.i_0 Bool )
(declare-var main@%_31_0 Bool )
(declare-var main@%or.cond36.i_0 Bool )
(declare-var main@%_32_0 Bool )
(declare-var main@%_25_0 Bool )
(declare-var main@%_26_0 Int )
(declare-var main@%_27_0 Bool )
(declare-var main@%or.cond_0 Bool )
(declare-var main@%_23_0 Bool )
(declare-var main@%_21_0 Int )
(declare-var main@%_17_0 Int )
(declare-var main@%_18_0 Int )
(declare-var main@%_19_0 Bool )
(declare-var main@%_2_0 Int )
(declare-var main@%_3_0 Int )
(declare-var main@%_4_0 Bool )
(declare-var main@%_5_0 Int )
(declare-var main@%_6_0 Int )
(declare-var main@%_7_0 Bool )
(declare-var main@%_8_0 Bool )
(declare-var main@%_9_0 Int )
(declare-var main@%_10_0 Int )
(declare-var main@%_12_0 Int )
(declare-var main@%_14_0 Int )
(declare-var main@%_15_0 Bool )
(declare-var main@entry_0 Bool )
(declare-var main@%sm_0 (Array Int Int) )
(declare-var main@%sm2_0 (Array Int Int) )
(declare-var main@%_0_0 Int )
(declare-var main@%_1_0 Int )
(declare-var main@%.pmcpy.elt.i_0 Int )
(declare-var main@%.pmcpy.unpack.i_0 Int )
(declare-var main@%.pmcpy.elt2.i_0 Int )
(declare-var main@%.pmcpy.unpack3.i_0 Int )
(declare-var main@%.pmcpy1.elt9.i_0 Int )
(declare-var main@%.pmcpy1.unpack10.i_0 Int )
(declare-var main@%.pmcpy1.elt11.i_0 Int )
(declare-var main@%.pmcpy1.unpack12.i_0 Int )
(declare-var main@%_11_0 Int )
(declare-var main@%_13_0 Int )
(declare-var main@_16_0 Bool )
(declare-var main@_20_0 Bool )
(declare-var main@_22_0 Bool )
(declare-var |tuple(main@entry_0, main@_22_0)| Bool )
(declare-var main@_24_0 Bool )
(declare-var main@_28_0 Bool )
(declare-var main@%_33_0 Int )
(declare-var main@_34_0 Bool )
(declare-var main@_37_0 Bool )
(declare-var main@_39_0 Bool )
(declare-var |tuple(main@_37_0, main@_39_0)| Bool )
(declare-var |tuple(main@_34_0, main@_39_0)| Bool )
(declare-var main@verifier.error_0 Bool )
(declare-var |tuple(main@_37_0, main@verifier.error_0)| Bool )
(declare-var |tuple(main@_34_0, main@verifier.error_0)| Bool )
(declare-var |tuple(main@_24_0, main@verifier.error_0)| Bool )
(declare-var |tuple(main@_22_0, main@verifier.error_0)| Bool )
(declare-var |tuple(main@_16_0, main@verifier.error_0)| Bool )
(declare-var main@verifier.error.split_0 Bool )
(rule (verifier.error false false false))
(rule (verifier.error false true true))
(rule (verifier.error true false true))
(rule (verifier.error true true true))
(rule main@entry)
(rule (let ((a!1 (= main@%.pmcpy.elt.i_0 (+ (+ main@%_0_0 (* 0 8)) 0)))
      (a!2 (= main@%.pmcpy.elt2.i_0 (+ (+ main@%_0_0 (* 0 8)) 4)))
      (a!3 (= main@%.pmcpy1.elt9.i_0 (+ (+ main@%_1_0 (* 0 16)) 8)))
      (a!4 (= main@%.pmcpy1.elt11.i_0 (+ (+ main@%_1_0 (* 0 16)) 12)))
      (a!5 (= main@%_11_0 (+ (+ main@%_1_0 (* 0 16)) 4)))
      (a!6 (= main@%_13_0 (+ (+ main@%_1_0 (* 0 16)) 0)))
      (a!7 (= main@%_31_0
              (ite (>= main@%.pmcpy.unpack.i_0 0)
                   (ite (>= main@%.pmcpy1.unpack10.i_0 0)
                        (< main@%.pmcpy.unpack.i_0 main@%.pmcpy1.unpack10.i_0)
                        true)
                   (ite (< main@%.pmcpy1.unpack10.i_0 0)
                        (< main@%.pmcpy.unpack.i_0 main@%.pmcpy1.unpack10.i_0)
                        false))))
      (a!8 (=> main@_34_0
               (= main@%_35_0
                  (+ main@%.pmcpy.unpack3.i_0 (* main@%.pmcpy1.unpack10.i_0 1))))))
(let ((a!9 (and main@entry
                true
                (> main@%_0_0 0)
                (> main@%_1_0 0)
                (> main@%_2_0 0)
                (> main@%_3_0 0)
                (not main@%_4_0)
                (= main@%_5_0 main@%_0_0)
                (= main@%_6_0 main@%_1_0)
                main@%_7_0
                main@%_8_0
                a!1
                (or (<= main@%_0_0 0) (> main@%.pmcpy.elt.i_0 0))
                (= main@%.pmcpy.unpack.i_0
                   (select main@%sm_0 main@%.pmcpy.elt.i_0))
                a!2
                (or (<= main@%_0_0 0) (> main@%.pmcpy.elt2.i_0 0))
                (> main@%_0_0 0)
                (= main@%.pmcpy.unpack3.i_0
                   (select main@%sm_0 main@%.pmcpy.elt2.i_0))
                (= main@%_9_0 main@%_2_0)
                a!3
                (or (<= main@%_1_0 0) (> main@%.pmcpy1.elt9.i_0 0))
                (> main@%_1_0 0)
                (= main@%.pmcpy1.unpack10.i_0
                   (select main@%sm2_0 main@%.pmcpy1.elt9.i_0))
                a!4
                (or (<= main@%_1_0 0) (> main@%.pmcpy1.elt11.i_0 0))
                (> main@%_1_0 0)
                (= main@%.pmcpy1.unpack12.i_0
                   (select main@%sm2_0 main@%.pmcpy1.elt11.i_0))
                (= main@%_10_0 main@%_3_0)
                a!5
                (or (<= main@%_1_0 0) (> main@%_11_0 0))
                (> main@%_1_0 0)
                (= main@%_12_0 (select main@%sm2_0 main@%_11_0))
                a!6
                (or (<= main@%_1_0 0) (> main@%_13_0 0))
                (= main@%_14_0 (select main@%sm2_0 main@%_13_0))
                (=> main@_16_0 (and main@_16_0 main@entry_0))
                (=> (and main@_16_0 main@entry_0) main@%_15_0)
                (=> main@_16_0 (= main@%_17_0 (select main@%sm2_0 main@%_13_0)))
                (=> main@_16_0 (> main@%_1_0 0))
                (=> main@_16_0
                    (= main@%_18_0 (select main@%sm2_0 main@%.pmcpy1.elt9.i_0)))
                (=> main@_16_0 (= main@%_19_0 (= main@%_17_0 main@%_18_0)))
                (=> main@_20_0 (and main@_20_0 main@_16_0))
                (=> (and main@_20_0 main@_16_0) main@%_19_0)
                (=> main@_20_0 (> main@%_1_0 0))
                (=> main@_20_0 (= main@%_21_0 (select main@%sm2_0 main@%_11_0)))
                (=> |tuple(main@entry_0, main@_22_0)| main@entry_0)
                (=> main@_22_0
                    (or (and main@_22_0 main@_20_0)
                        |tuple(main@entry_0, main@_22_0)|))
                (=> |tuple(main@entry_0, main@_22_0)| (not main@%_15_0))
                (=> main@_24_0 (and main@_24_0 main@_22_0))
                (=> (and main@_24_0 main@_22_0) main@%_23_0)
                (=> main@_24_0 (> main@%_1_0 0))
                (=> main@_24_0
                    (= main@%_26_0 (select main@%sm2_0 main@%.pmcpy1.elt11.i_0)))
                (=> main@_24_0
                    (= main@%_27_0 (= main@%.pmcpy1.unpack12.i_0 main@%_26_0)))
                (=> main@_24_0
                    (= main@%or.cond_0 (and main@%_25_0 main@%_27_0)))
                (=> main@_28_0 (and main@_28_0 main@_24_0))
                (=> (and main@_28_0 main@_24_0) main@%or.cond_0)
                (=> main@_28_0 (= main@%_29_0 (< main@%.pmcpy.unpack.i_0 0)))
                (=> main@_28_0 (= main@%_30_0 (< main@%.pmcpy1.unpack10.i_0 0)))
                (=> main@_28_0
                    (= main@%or.cond.i_0 (or main@%_29_0 main@%_30_0)))
                (=> main@_28_0 a!7)
                (=> main@_28_0
                    (= main@%or.cond36.i_0 (or main@%_31_0 main@%or.cond.i_0)))
                (=> main@_28_0 (not main@%or.cond36.i_0))
                (=> main@_28_0 (= main@%_32_0 (= main@%.pmcpy.unpack3.i_0 0)))
                (=> main@_28_0 (> main@%_0_0 0))
                (=> main@_28_0
                    (= main@%_33_0 (select main@%sm_0 main@%.pmcpy.elt2.i_0)))
                (=> main@_34_0 (and main@_34_0 main@_28_0))
                (=> (and main@_34_0 main@_28_0) (not main@%_32_0))
                a!8
                (=> main@_34_0
                    (or (<= main@%.pmcpy.unpack3.i_0 0) (> main@%_35_0 0)))
                (=> main@_34_0 (= main@%_36_0 (= main@%_33_0 main@%_35_0)))
                (=> main@_37_0 (and main@_37_0 main@_28_0))
                (=> (and main@_37_0 main@_28_0) main@%_32_0)
                (=> main@_37_0 (= main@%_38_0 (= main@%_33_0 0)))
                (=> |tuple(main@_37_0, main@_39_0)| main@_37_0)
                (=> |tuple(main@_34_0, main@_39_0)| main@_34_0)
                (=> main@_39_0
                    (or |tuple(main@_37_0, main@_39_0)|
                        |tuple(main@_34_0, main@_39_0)|))
                (=> |tuple(main@_37_0, main@_39_0)| main@%_38_0)
                (=> |tuple(main@_34_0, main@_39_0)| main@%_36_0)
                (=> main@_39_0
                    (= main@%_40_0 (select main@%sm_0 main@%.pmcpy.elt.i_0)))
                (=> main@_39_0
                    (= main@%_41_0
                       (- main@%.pmcpy.unpack.i_0 main@%.pmcpy1.unpack10.i_0)))
                (=> main@_39_0 (= main@%_42_0 (= main@%_40_0 main@%_41_0)))
                (=> main@_39_0 (not main@%_42_0))
                (=> |tuple(main@_37_0, main@verifier.error_0)| main@_37_0)
                (=> |tuple(main@_34_0, main@verifier.error_0)| main@_34_0)
                (=> |tuple(main@_24_0, main@verifier.error_0)| main@_24_0)
                (=> |tuple(main@_22_0, main@verifier.error_0)| main@_22_0)
                (=> |tuple(main@_16_0, main@verifier.error_0)| main@_16_0)
                (=> main@verifier.error_0
                    (or |tuple(main@_37_0, main@verifier.error_0)|
                        |tuple(main@_34_0, main@verifier.error_0)|
                        |tuple(main@_24_0, main@verifier.error_0)|
                        |tuple(main@_22_0, main@verifier.error_0)|
                        |tuple(main@_16_0, main@verifier.error_0)|
                        (and main@verifier.error_0 main@_39_0)))
                (=> |tuple(main@_37_0, main@verifier.error_0)|
                    (not main@%_38_0))
                (=> |tuple(main@_34_0, main@verifier.error_0)|
                    (not main@%_36_0))
                (=> |tuple(main@_24_0, main@verifier.error_0)|
                    (not main@%or.cond_0))
                (=> |tuple(main@_22_0, main@verifier.error_0)|
                    (not main@%_23_0))
                (=> |tuple(main@_16_0, main@verifier.error_0)|
                    (not main@%_19_0))
                (=> main@verifier.error.split_0
                    (and main@verifier.error.split_0 main@verifier.error_0))
                main@verifier.error.split_0)))
  (=> a!9 main@verifier.error.split))))
(query main@verifier.error.split)

